(set-info :origin "SVCOMP13 benchmarks generated by Arie Gurfinkel")
(set-info :status sat)
(set-logic HORN)
(declare-fun cp-rel-entry () Bool)
(declare-fun cp-rel-bb1.i.i (Real Real Real Real Real) Bool)
(declare-fun cp-rel-bb2.i.i35.i.i () Bool)
(assert |cp-rel-entry|)
(assert (forall ((?A Real) (?B Real) (?C Real) (?D Real) (?E Real) (?F Bool) )(let (($x221844 (and |cp-rel-entry| (<= ?E 1.0) (>= ?D 0.0) (<= ?D 0.0) (>= ?C 0.0) (<= ?C 0.0) (>= ?B 0.0) (<= ?B 0.0) (>= ?A 1.0) (<= ?A 1.0) (= ?F true) (>= ?E 1.0))))
(=> $x221844 (|cp-rel-bb1.i.i| ?A ?B ?C ?D ?E))))
)
(assert (forall ((?A Real) (?B Real) (?C Real) (?D Real) (?E Real) (?F Real) (?G Real) (?H Real) (?I Real) (?J Real) (?K Bool) (?L Bool) (?M Bool) (?N Bool) (?O Bool) (?P Bool) (?Q Real) (?R Real) (?S Bool) (?T Bool) (?U Bool) (?V Bool) (?W Bool) (?X Bool) (?Y Real) (?Z Real) (?A1 Bool) (?B1 Bool) (?C1 Bool) (?D1 Bool) (?E1 Bool) (?F1 Bool) (?G1 Bool) (?H1 Real) (?I1 Bool) (?J1 Bool) (?K1 Bool) (?L1 Bool) (?M1 Bool) (?N1 Bool) (?O1 Real) (?P1 Real) (?Q1 Bool) (?R1 Bool) (?S1 Bool) (?T1 Bool) (?U1 Bool) (?V1 Bool) (?W1 Bool) (?X1 Bool) (?Y1 Bool) (?Z1 Bool) (?A2 Bool) (?B2 Bool) (?C2 Bool) (?D2 Real) (?E2 Real) (?F2 Real) (?G2 Real) (?H2 Bool) (?I2 Bool) (?J2 Bool) (?K2 Bool) (?L2 Bool) (?M2 Bool) (?N2 Bool) (?O2 Bool) (?P2 Real) (?Q2 Bool) (?R2 Real) (?S2 Real) (?T2 Bool) (?U2 Real) (?V2 Real) (?W2 Bool) (?X2 Real) (?Y2 Bool) (?Z2 Bool) (?A3 Bool) (?B3 Bool) (?C3 Bool) )(let (($x621779 (|cp-rel-bb1.i.i| ?F ?G ?H ?I ?J)))
(let (($x879383 (or (not ?K) (and ?L ?M (not ?N)))))
(let (($x134245 (or (not ?K) ?M)))
(let (($x71149 (not ?O)))
(let (($x314282 (or $x71149 (and ?K ?P (<= ?Q ?R) (>= ?Q ?R)) (and ?L ?S ?N (<= ?Q ?E) (>= ?Q ?E)))))
(let (($x419357 (or $x71149 (and ?P (not ?S)) (and ?S (not ?P)))))
(let (($x259919 (or (not ?T) (and ?O ?U (not ?V)))))
(let (($x16197 (or (not ?T) ?U)))
(let (($x412218 (not ?W)))
(let (($x126457 (or $x412218 (and ?T ?X (<= ?Y ?Z) (>= ?Y ?Z)) (and ?O ?A1 ?V (<= ?Y ?D) (>= ?Y ?D)))))
(let (($x260681 (or $x412218 (and ?X (not ?A1)) (and ?A1 (not ?X)))))
(let (($x489646 (or (not ?B1) (and ?W ?C1 ?D1))))
(let (($x552560 (or (not ?B1) ?C1)))
(let (($x911891 (not ?E1)))
(let (($x402983 (or $x911891 (and ?B1 ?F1 ?G1 (<= ?H1 ?A) (>= ?H1 ?A)) (and ?W ?I1 (not ?D1) (<= ?H1 1.0) (>= ?H1 1.0)))))
(let (($x817755 (or $x911891 (and ?F1 (not ?I1)) (and ?I1 (not ?F1)))))
(let (($x873194 (or (not ?J1) (and ?E1 ?K1 (not ?L1)))))
(let (($x183693 (or (not ?J1) ?K1)))
(let (($x564768 (or (not ?M1) (and ?J1 ?N1 (<= ?O1 ?P1) (>= ?O1 ?P1)) (and ?E1 ?Q1 ?L1 (<= ?O1 ?Q) (>= ?O1 ?Q)))))
(let (($x246437 (or (not ?M1) (and ?N1 (not ?Q1)) (and ?Q1 (not ?N1)))))
(let (($x164458 (or (not ?R1) (and ?M1 ?S1 (not ?T1)))))
(let (($x248455 (or (not ?R1) ?S1)))
(let (($x143756 (or (not ?U1) (and ?R1 ?V1 ?L1))))
(let (($x831389 (or (not ?U1) ?V1)))
(let (($x80486 (or (not ?W1) (and ?R1 ?X1 (not ?L1)))))
(let (($x841227 (or (not ?W1) ?X1)))
(let (($x586582 (or (not ?Y1) (and ?W1 ?Z1 ?A2))))
(let (($x368336 (or (not ?Y1) ?Z1)))
(let (($x425501 (and ?B1 ?K2 (not ?G1) (<= ?D2 0.0) (>= ?D2 0.0) (<= ?E2 ?Q) (>= ?E2 ?Q) (<= ?F2 0.0) (>= ?F2 0.0))))
(let (($x646406 (>= ?E2 ?O1)))
(let (($x334275 (<= ?E2 ?O1)))
(let (($x352946 (>= ?D2 ?H1)))
(let (($x334428 (<= ?D2 ?H1)))
(let (($x222102 (and ?M1 ?J2 ?T1 $x334428 $x352946 $x334275 $x646406 (<= ?F2 ?B) (>= ?F2 ?B))))
(let (($x278396 (and ?W1 ?I2 (not ?A2) $x334428 $x352946 $x334275 $x646406 (<= ?F2 0.0) (>= ?F2 0.0))))
(let (($x365384 (not ?B2)))
(let (($x133290 (or $x365384 (and ?U1 ?C2 $x334428 $x352946 $x334275 $x646406 (<= ?F2 ?G2) (>= ?F2 ?G2)) (and ?Y1 ?H2 $x334428 $x352946 $x334275 $x646406 (<= ?F2 ?B) (>= ?F2 ?B)) $x278396 $x222102 $x425501)))
(let (($x783069 (or $x365384 (and ?C2 (not ?H2) (not ?I2) (not ?J2) (not ?K2)) (and ?H2 (not ?C2) (not ?I2) (not ?J2) (not ?K2)) (and ?I2 (not ?C2) (not ?H2) (not ?J2) (not ?K2)) (and ?J2 (not ?C2) (not ?H2) (not ?I2) (not ?K2)) (and ?K2 (not ?C2) (not ?H2) (not ?I2) (not ?J2)))))
(let (($x267379 (or (not ?L2) (and ?B2 ?M2 (not ?N2)))))
(let (($x512351 (or (not ?L2) ?M2)))
(let (($x580049 (and ?B2 ?N2 (<= ?F ?D2) (>= ?F ?D2) (<= ?G ?F2) (>= ?G ?F2) (<= ?H 0.0) (>= ?H 0.0) (<= ?I ?Y) (>= ?I ?Y) (<= ?J ?E2) (>= ?J ?E2))))
(let (($x254421 (and ?L2 ?O2 (<= ?F ?D2) (>= ?F ?D2) (<= ?G ?F2) (>= ?G ?F2) (<= ?H 1.0) (>= ?H 1.0) (<= ?I ?Y) (>= ?I ?Y) (<= ?J ?E2) (>= ?J ?E2))))
(let (($x905343 (= ?N (= ?P2 0.0))))
(let (($x583990 (= ?R2 (ite ?Q2 1.0 0.0))))
(let (($x843239 (= ?V (= ?S2 0.0))))
(let (($x870895 (= ?Z (ite ?T2 1.0 0.0))))
(let (($x111727 (= ?D1 (= ?U2 0.0))))
(let (($x165161 (= ?G1 (= ?V2 0.0))))
(let (($x275076 (= ?W2 (not (<= ?Q 0.0)))))
(let (($x190833 (= ?X2 (+ (~ 1.0) ?Q))))
(let (($x473224 (= ?P1 (ite ?W2 ?X2 ?Q))))
(let (($x156542 (= ?T1 (= ?H1 0.0))))
(let (($x501616 (= ?Y2 (not (<= ?O1 1.0)))))
(let (($x535932 (= ?Z2 (= ?Y 0.0))))
(let (($x535876 (= ?A3 (= ?O1 0.0))))
(let (($x100756 (= ?A2 (and ?Z2 ?A3))))
(let (($x413012 (= ?B3 (= ?Y 0.0))))
(let (($x124670 (= ?C3 (= ?F2 0.0))))
(let (($x873913 (= ?N2 (or ?C3 ?B3))))
(let (($x494111 (and (|cp-rel-bb1.i.i| ?A ?B ?C ?D ?E) $x873913 $x124670 $x413012 $x100756 $x535876 $x535932 (= ?G2 (ite ?Y2 1.0 ?B)) $x501616 $x156542 $x473224 $x190833 $x275076 (= ?L1 (= ?B 0.0)) $x165161 $x111727 $x870895 (= ?T2 (= ?D 0.0)) $x843239 (= ?R (+ ?R2 ?E)) $x583990 (= ?Q2 (not (<= 2.0 ?E))) $x905343 (or $x254421 $x580049) $x512351 $x267379 $x783069 $x133290 $x368336 $x586582 $x841227 $x80486 $x831389 $x143756 $x248455 $x164458 $x246437 $x564768 $x183693 $x873194 $x817755 $x402983 $x552560 $x489646 $x260681 $x126457 $x16197 $x259919 $x419357 $x314282 $x134245 $x879383 (= ?O2 (= ?C 0.0)))))
(=> $x494111 $x621779))))))))))))))))))))))))))))))))))))))))))))))))))))))))))))))
)
(assert (forall ((?A Real) (?B Real) (?C Real) (?D Real) (?E Real) (?F Bool) (?G Bool) (?H Bool) (?I Bool) (?J Bool) (?K Bool) (?L Real) (?M Real) (?N Bool) (?O Bool) (?P Bool) (?Q Bool) (?R Bool) (?S Bool) (?T Real) (?U Real) (?V Bool) (?W Bool) (?X Bool) (?Y Bool) (?Z Bool) (?A1 Bool) (?B1 Bool) (?C1 Real) (?D1 Bool) (?E1 Bool) (?F1 Bool) (?G1 Bool) (?H1 Bool) (?I1 Bool) (?J1 Real) (?K1 Real) (?L1 Bool) (?M1 Bool) (?N1 Bool) (?O1 Bool) (?P1 Bool) (?Q1 Bool) (?R1 Bool) (?S1 Bool) (?T1 Bool) (?U1 Bool) (?V1 Bool) (?W1 Bool) (?X1 Bool) (?Y1 Real) (?Z1 Real) (?A2 Real) (?B2 Real) (?C2 Bool) (?D2 Bool) (?E2 Bool) (?F2 Bool) (?G2 Bool) (?H2 Bool) (?I2 Bool) (?J2 Bool) (?K2 Real) (?L2 Bool) (?M2 Real) (?N2 Real) (?O2 Bool) (?P2 Real) (?Q2 Real) (?R2 Bool) (?S2 Real) (?T2 Bool) (?U2 Bool) (?V2 Bool) (?W2 Bool) (?X2 Bool) )(let (($x879383 (or (not ?F) (and ?G ?H (not ?I)))))
(let (($x134245 (or (not ?F) ?H)))
(let (($x71149 (not ?J)))
(let (($x905578 (or $x71149 (and ?F ?K (<= ?L ?M) (>= ?L ?M)) (and ?G ?N ?I (<= ?L ?E) (>= ?L ?E)))))
(let (($x419357 (or $x71149 (and ?K (not ?N)) (and ?N (not ?K)))))
(let (($x259919 (or (not ?O) (and ?J ?P (not ?Q)))))
(let (($x16197 (or (not ?O) ?P)))
(let (($x412218 (not ?R)))
(let (($x233770 (or $x412218 (and ?O ?S (<= ?T ?U) (>= ?T ?U)) (and ?J ?V ?Q (<= ?T ?D) (>= ?T ?D)))))
(let (($x260681 (or $x412218 (and ?S (not ?V)) (and ?V (not ?S)))))
(let (($x489646 (or (not ?W) (and ?R ?X ?Y))))
(let (($x552560 (or (not ?W) ?X)))
(let (($x911891 (not ?Z)))
(let (($x213239 (or $x911891 (and ?W ?A1 ?B1 (<= ?C1 ?A) (>= ?C1 ?A)) (and ?R ?D1 (not ?Y) (<= ?C1 1.0) (>= ?C1 1.0)))))
(let (($x817755 (or $x911891 (and ?A1 (not ?D1)) (and ?D1 (not ?A1)))))
(let (($x873194 (or (not ?E1) (and ?Z ?F1 (not ?G1)))))
(let (($x183693 (or (not ?E1) ?F1)))
(let (($x564768 (or (not ?H1) (and ?E1 ?I1 (<= ?J1 ?K1) (>= ?J1 ?K1)) (and ?Z ?L1 ?G1 (<= ?J1 ?L) (>= ?J1 ?L)))))
(let (($x246437 (or (not ?H1) (and ?I1 (not ?L1)) (and ?L1 (not ?I1)))))
(let (($x164458 (or (not ?M1) (and ?H1 ?N1 (not ?O1)))))
(let (($x248455 (or (not ?M1) ?N1)))
(let (($x143756 (or (not ?P1) (and ?M1 ?Q1 ?G1))))
(let (($x831389 (or (not ?P1) ?Q1)))
(let (($x80486 (or (not ?R1) (and ?M1 ?S1 (not ?G1)))))
(let (($x841227 (or (not ?R1) ?S1)))
(let (($x586582 (or (not ?T1) (and ?R1 ?U1 ?V1))))
(let (($x368336 (or (not ?T1) ?U1)))
(let (($x425501 (and ?W ?F2 (not ?B1) (<= ?Y1 0.0) (>= ?Y1 0.0) (<= ?Z1 ?L) (>= ?Z1 ?L) (<= ?A2 0.0) (>= ?A2 0.0))))
(let (($x646406 (>= ?Z1 ?J1)))
(let (($x334275 (<= ?Z1 ?J1)))
(let (($x352946 (>= ?Y1 ?C1)))
(let (($x334428 (<= ?Y1 ?C1)))
(let (($x548366 (and ?H1 ?E2 ?O1 $x334428 $x352946 $x334275 $x646406 (<= ?A2 ?B) (>= ?A2 ?B))))
(let (($x278396 (and ?R1 ?D2 (not ?V1) $x334428 $x352946 $x334275 $x646406 (<= ?A2 0.0) (>= ?A2 0.0))))
(let (($x365384 (not ?W1)))
(let (($x306100 (or $x365384 (and ?P1 ?X1 $x334428 $x352946 $x334275 $x646406 (<= ?A2 ?B2) (>= ?A2 ?B2)) (and ?T1 ?C2 $x334428 $x352946 $x334275 $x646406 (<= ?A2 ?B) (>= ?A2 ?B)) $x278396 $x548366 $x425501)))
(let (($x783069 (or $x365384 (and ?X1 (not ?C2) (not ?D2) (not ?E2) (not ?F2)) (and ?C2 (not ?X1) (not ?D2) (not ?E2) (not ?F2)) (and ?D2 (not ?X1) (not ?C2) (not ?E2) (not ?F2)) (and ?E2 (not ?X1) (not ?C2) (not ?D2) (not ?F2)) (and ?F2 (not ?X1) (not ?C2) (not ?D2) (not ?E2)))))
(let (($x267379 (or (not ?G2) (and ?W1 ?H2 (not ?I2)))))
(let (($x512351 (or (not ?G2) ?H2)))
(let (($x905343 (= ?I (= ?K2 0.0))))
(let (($x583990 (= ?M2 (ite ?L2 1.0 0.0))))
(let (($x843239 (= ?Q (= ?N2 0.0))))
(let (($x870895 (= ?U (ite ?O2 1.0 0.0))))
(let (($x111727 (= ?Y (= ?P2 0.0))))
(let (($x165161 (= ?B1 (= ?Q2 0.0))))
(let (($x275076 (= ?R2 (not (<= ?L 0.0)))))
(let (($x190833 (= ?S2 (+ (~ 1.0) ?L))))
(let (($x473224 (= ?K1 (ite ?R2 ?S2 ?L))))
(let (($x156542 (= ?O1 (= ?C1 0.0))))
(let (($x501616 (= ?T2 (not (<= ?J1 1.0)))))
(let (($x535932 (= ?U2 (= ?T 0.0))))
(let (($x535876 (= ?V2 (= ?J1 0.0))))
(let (($x100756 (= ?V1 (and ?U2 ?V2))))
(let (($x413012 (= ?W2 (= ?T 0.0))))
(let (($x124670 (= ?X2 (= ?A2 0.0))))
(let (($x873913 (= ?I2 (or ?X2 ?W2))))
(let (($x621779 (|cp-rel-bb1.i.i| ?A ?B ?C ?D ?E)))
(let (($x597527 (and $x621779 $x873913 $x124670 $x413012 $x100756 $x535876 $x535932 (= ?B2 (ite ?T2 1.0 ?B)) $x501616 $x156542 $x473224 $x190833 $x275076 (= ?G1 (= ?B 0.0)) $x165161 $x111727 $x870895 (= ?O2 (= ?D 0.0)) $x843239 (= ?M (+ ?M2 ?E)) $x583990 (= ?L2 (not (<= 2.0 ?E))) $x905343 (not (= ?J2 true)) (= ?G2 true) $x512351 $x267379 $x783069 $x306100 $x368336 $x586582 $x841227 $x80486 $x831389 $x143756 $x248455 $x164458 $x246437 $x564768 $x183693 $x873194 $x817755 $x213239 $x552560 $x489646 $x260681 $x233770 $x16197 $x259919 $x419357 $x905578 $x134245 $x879383 (= ?J2 (= ?C 0.0)))))
(=> $x597527 |cp-rel-bb2.i.i35.i.i|))))))))))))))))))))))))))))))))))))))))))))))))))))))))))))
)
(assert (not cp-rel-bb2.i.i35.i.i))
(check-sat)
